NAME          
ROWS
 N  OBJ
 L  c1
COLUMNS
    MARKER    'MARKER'                 'INTORG'
    x[1]      c1        959
    x[1]      OBJ       -932
    x[2]      c1        745
    x[2]      OBJ       -837
    x[3]      c1        947
    x[3]      OBJ       -982
    x[4]      c1        394
    x[4]      OBJ       -395
    x[5]      c1        141
    x[5]      OBJ       -69
RHS
    rhs       c1        1593
RANGES
BOUNDS
 BV bounds    x[1]
 BV bounds    x[2]
 BV bounds    x[3]
 BV bounds    x[4]
 BV bounds    x[5]
ENDATA
